% Generated by MiniZinc 2.9.3
% Solver library: /home/icwmmarijnisse/Pumpkin/minizinc/lib
% Command line invocation: minizinc --compile --fzn ./instance.fzn --ozn ./instance.ozn --solver pumpkin ../../../../benchmarks/models/rcpsp/rcpsp_smaller.mzn ../../../../benchmarks/models/rcpsp/small_st103_14.dzn 

array [1..2] of int: X_INTRODUCED_26_ = [1,-1];
var 0..26: X_INTRODUCED_16_;
var 0..26: X_INTRODUCED_17_;
var 0..26: X_INTRODUCED_18_;
var 0..26: X_INTRODUCED_19_;
var 0..26: X_INTRODUCED_20_;
var 0..26: X_INTRODUCED_21_;
var 0..26: X_INTRODUCED_22_;
var 0..27: Objective:: output_var;
array [1..7] of var int: Start:: output_array([1..7]) = [X_INTRODUCED_16_,X_INTRODUCED_17_,X_INTRODUCED_18_,X_INTRODUCED_19_,X_INTRODUCED_20_,X_INTRODUCED_21_,X_INTRODUCED_22_];
array [1..7] of var int: X_INTRODUCED_31_ ::var_is_introduced  = [X_INTRODUCED_16_,X_INTRODUCED_17_,X_INTRODUCED_18_,X_INTRODUCED_19_,X_INTRODUCED_20_,X_INTRODUCED_21_,Objective];
constraint int_lin_le(X_INTRODUCED_26_,[X_INTRODUCED_16_,X_INTRODUCED_20_],-4);
constraint int_lin_le(X_INTRODUCED_26_,[X_INTRODUCED_18_,X_INTRODUCED_19_],-6);
constraint int_lin_le(X_INTRODUCED_26_,[X_INTRODUCED_18_,X_INTRODUCED_21_],-6);
constraint int_lin_le(X_INTRODUCED_26_,[X_INTRODUCED_19_,Objective],-1);
constraint int_lin_le(X_INTRODUCED_26_,[X_INTRODUCED_20_,Objective],-8);
constraint int_lin_le(X_INTRODUCED_26_,[X_INTRODUCED_21_,Objective],-6);
solve :: int_search(X_INTRODUCED_31_,smallest,indomain_min,complete) minimize Objective;
